num_personas = 6;
num_opiniones = 3;
distribucion_inicial = [3, 2, 1];
valores_extremismo = [0.9, 0.5, 0.1];
costos_extra = [1.0, 1.0, 2.0];
matriz_costos = [
  [0, 3, 6],
  [3, 0, 5],
  [6, 5, 0]
];
costo_maximo = 8;
movimientos_maximos = 3;